c Sudoku solution
p cnf 729 0
189 0
226 0
233 0
262 0
288 0
344 0
356 0
377 0
421 0
449 0
486 0
495 0
525 0
598 0
619 0
579 0
259 0
638 0
718 0
737 0
784 0
835 0
841 0
929 0
339 0
947 0
245 0
217 0
627 0
587 0
148 0
328 0
897 0
799 0
771 0
869 0
274 0
291 0
694 0
681 0
964 0
468 0
457 0
554 0
561 0
151 0
363 0
167 0
311 0
115 0
385 0
392 0
931 0
536 0
975 0
878 0
996 0
816 0
824 0
958 0
414 0
513 0
432 0
473 0
672 0
542 0
912 0
723 0
853 0
882 0
983 0
122 0
134 0
746 0
752 0
765 0
643 0
655 0
666 0
176 0
193 0
